p cnf 400 3272
1 0
82 0
187 0
284 0
213 0
174 0
-1 -281 0
-2 -282 0
-3 -283 0
-4 -284 0
-5 -285 0
-6 -286 0
-7 -287 0
-8 -288 0
-1 -169 0
-2 -170 0
-3 -171 0
-4 -172 0
-5 -173 0
-6 -174 0
-7 -175 0
-8 -176 0
-1 -209 0
-2 -210 0
-3 -211 0
-4 -212 0
-5 -213 0
-6 -214 0
-7 -215 0
-8 -216 0
-1 -185 0
-2 -186 0
-3 -187 0
-4 -188 0
-5 -189 0
-6 -190 0
-7 -191 0
-8 -192 0
-1 -113 0
-2 -114 0
-3 -115 0
-4 -116 0
-5 -117 0
-6 -118 0
-7 -119 0
-8 -120 0
-1 -289 0
-2 -290 0
-3 -291 0
-4 -292 0
-5 -293 0
-6 -294 0
-7 -295 0
-8 -296 0
-1 -73 0
-2 -74 0
-3 -75 0
-4 -76 0
-5 -77 0
-6 -78 0
-7 -79 0
-8 -80 0
-1 -345 0
-2 -346 0
-3 -347 0
-4 -348 0
-5 -349 0
-6 -350 0
-7 -351 0
-8 -352 0
-1 -49 0
-2 -50 0
-3 -51 0
-4 -52 0
-5 -53 0
-6 -54 0
-7 -55 0
-8 -56 0
-1 -17 0
-2 -18 0
-3 -19 0
-4 -20 0
-5 -21 0
-6 -22 0
-7 -23 0
-8 -24 0
-1 -129 0
-2 -130 0
-3 -131 0
-4 -132 0
-5 -133 0
-6 -134 0
-7 -135 0
-8 -136 0
-1 -273 0
-2 -274 0
-3 -275 0
-4 -276 0
-5 -277 0
-6 -278 0
-7 -279 0
-8 -280 0
-1 -369 0
-2 -370 0
-3 -371 0
-4 -372 0
-5 -373 0
-6 -374 0
-7 -375 0
-8 -376 0
-1 -137 0
-2 -138 0
-3 -139 0
-4 -140 0
-5 -141 0
-6 -142 0
-7 -143 0
-8 -144 0
-1 -265 0
-2 -266 0
-3 -267 0
-4 -268 0
-5 -269 0
-6 -270 0
-7 -271 0
-8 -272 0
-1 -81 0
-2 -82 0
-3 -83 0
-4 -84 0
-5 -85 0
-6 -86 0
-7 -87 0
-8 -88 0
-9 -281 0
-10 -282 0
-11 -283 0
-12 -284 0
-13 -285 0
-14 -286 0
-15 -287 0
-16 -288 0
-9 -169 0
-10 -170 0
-11 -171 0
-12 -172 0
-13 -173 0
-14 -174 0
-15 -175 0
-16 -176 0
-9 -241 0
-10 -242 0
-11 -243 0
-12 -244 0
-13 -245 0
-14 -246 0
-15 -247 0
-16 -248 0
-9 -105 0
-10 -106 0
-11 -107 0
-12 -108 0
-13 -109 0
-14 -110 0
-15 -111 0
-16 -112 0
-9 -225 0
-10 -226 0
-11 -227 0
-12 -228 0
-13 -229 0
-14 -230 0
-15 -231 0
-16 -232 0
-9 -177 0
-10 -178 0
-11 -179 0
-12 -180 0
-13 -181 0
-14 -182 0
-15 -183 0
-16 -184 0
-9 -97 0
-10 -98 0
-11 -99 0
-12 -100 0
-13 -101 0
-14 -102 0
-15 -103 0
-16 -104 0
-9 -377 0
-10 -378 0
-11 -379 0
-12 -380 0
-13 -381 0
-14 -382 0
-15 -383 0
-16 -384 0
-9 -337 0
-10 -338 0
-11 -339 0
-12 -340 0
-13 -341 0
-14 -342 0
-15 -343 0
-16 -344 0
-9 -313 0
-10 -314 0
-11 -315 0
-12 -316 0
-13 -317 0
-14 -318 0
-15 -319 0
-16 -320 0
-9 -393 0
-10 -394 0
-11 -395 0
-12 -396 0
-13 -397 0
-14 -398 0
-15 -399 0
-16 -400 0
-9 -249 0
-10 -250 0
-11 -251 0
-12 -252 0
-13 -253 0
-14 -254 0
-15 -255 0
-16 -256 0
-9 -145 0
-10 -146 0
-11 -147 0
-12 -148 0
-13 -149 0
-14 -150 0
-15 -151 0
-16 -152 0
-9 -201 0
-10 -202 0
-11 -203 0
-12 -204 0
-13 -205 0
-14 -206 0
-15 -207 0
-16 -208 0
-9 -305 0
-10 -306 0
-11 -307 0
-12 -308 0
-13 -309 0
-14 -310 0
-15 -311 0
-16 -312 0
-9 -257 0
-10 -258 0
-11 -259 0
-12 -260 0
-13 -261 0
-14 -262 0
-15 -263 0
-16 -264 0
-9 -65 0
-10 -66 0
-11 -67 0
-12 -68 0
-13 -69 0
-14 -70 0
-15 -71 0
-16 -72 0
-17 -329 0
-18 -330 0
-19 -331 0
-20 -332 0
-21 -333 0
-22 -334 0
-23 -335 0
-24 -336 0
-17 -129 0
-18 -130 0
-19 -131 0
-20 -132 0
-21 -133 0
-22 -134 0
-23 -135 0
-24 -136 0
-17 -161 0
-18 -162 0
-19 -163 0
-20 -164 0
-21 -165 0
-22 -166 0
-23 -167 0
-24 -168 0
-17 -369 0
-18 -370 0
-19 -371 0
-20 -372 0
-21 -373 0
-22 -374 0
-23 -375 0
-24 -376 0
-17 -289 0
-18 -290 0
-19 -291 0
-20 -292 0
-21 -293 0
-22 -294 0
-23 -295 0
-24 -296 0
-17 -73 0
-18 -74 0
-19 -75 0
-20 -76 0
-21 -77 0
-22 -78 0
-23 -79 0
-24 -80 0
-17 -217 0
-18 -218 0
-19 -219 0
-20 -220 0
-21 -221 0
-22 -222 0
-23 -223 0
-24 -224 0
-17 -273 0
-18 -274 0
-19 -275 0
-20 -276 0
-21 -277 0
-22 -278 0
-23 -279 0
-24 -280 0
-17 -113 0
-18 -114 0
-19 -115 0
-20 -116 0
-21 -117 0
-22 -118 0
-23 -119 0
-24 -120 0
-17 -265 0
-18 -266 0
-19 -267 0
-20 -268 0
-21 -269 0
-22 -270 0
-23 -271 0
-24 -272 0
-17 -33 0
-18 -34 0
-19 -35 0
-20 -36 0
-21 -37 0
-22 -38 0
-23 -39 0
-24 -40 0
-17 -41 0
-18 -42 0
-19 -43 0
-20 -44 0
-21 -45 0
-22 -46 0
-23 -47 0
-24 -48 0
-17 -233 0
-18 -234 0
-19 -235 0
-20 -236 0
-21 -237 0
-22 -238 0
-23 -239 0
-24 -240 0
-17 -89 0
-18 -90 0
-19 -91 0
-20 -92 0
-21 -93 0
-22 -94 0
-23 -95 0
-24 -96 0
-17 -345 0
-18 -346 0
-19 -347 0
-20 -348 0
-21 -349 0
-22 -350 0
-23 -351 0
-24 -352 0
-25 -393 0
-26 -394 0
-27 -395 0
-28 -396 0
-29 -397 0
-30 -398 0
-31 -399 0
-32 -400 0
-25 -329 0
-26 -330 0
-27 -331 0
-28 -332 0
-29 -333 0
-30 -334 0
-31 -335 0
-32 -336 0
-25 -129 0
-26 -130 0
-27 -131 0
-28 -132 0
-29 -133 0
-30 -134 0
-31 -135 0
-32 -136 0
-25 -217 0
-26 -218 0
-27 -219 0
-28 -220 0
-29 -221 0
-30 -222 0
-31 -223 0
-32 -224 0
-25 -321 0
-26 -322 0
-27 -323 0
-28 -324 0
-29 -325 0
-30 -326 0
-31 -327 0
-32 -328 0
-25 -361 0
-26 -362 0
-27 -363 0
-28 -364 0
-29 -365 0
-30 -366 0
-31 -367 0
-32 -368 0
-25 -249 0
-26 -250 0
-27 -251 0
-28 -252 0
-29 -253 0
-30 -254 0
-31 -255 0
-32 -256 0
-25 -353 0
-26 -354 0
-27 -355 0
-28 -356 0
-29 -357 0
-30 -358 0
-31 -359 0
-32 -360 0
-25 -137 0
-26 -138 0
-27 -139 0
-28 -140 0
-29 -141 0
-30 -142 0
-31 -143 0
-32 -144 0
-25 -193 0
-26 -194 0
-27 -195 0
-28 -196 0
-29 -197 0
-30 -198 0
-31 -199 0
-32 -200 0
-25 -265 0
-26 -266 0
-27 -267 0
-28 -268 0
-29 -269 0
-30 -270 0
-31 -271 0
-32 -272 0
-25 -41 0
-26 -42 0
-27 -43 0
-28 -44 0
-29 -45 0
-30 -46 0
-31 -47 0
-32 -48 0
-25 -153 0
-26 -154 0
-27 -155 0
-28 -156 0
-29 -157 0
-30 -158 0
-31 -159 0
-32 -160 0
-25 -305 0
-26 -306 0
-27 -307 0
-28 -308 0
-29 -309 0
-30 -310 0
-31 -311 0
-32 -312 0
-25 -121 0
-26 -122 0
-27 -123 0
-28 -124 0
-29 -125 0
-30 -126 0
-31 -127 0
-32 -128 0
-25 -89 0
-26 -90 0
-27 -91 0
-28 -92 0
-29 -93 0
-30 -94 0
-31 -95 0
-32 -96 0
-33 -329 0
-34 -330 0
-35 -331 0
-36 -332 0
-37 -333 0
-38 -334 0
-39 -335 0
-40 -336 0
-33 -129 0
-34 -130 0
-35 -131 0
-36 -132 0
-37 -133 0
-38 -134 0
-39 -135 0
-40 -136 0
-33 -161 0
-34 -162 0
-35 -163 0
-36 -164 0
-37 -165 0
-38 -166 0
-39 -167 0
-40 -168 0
-33 -217 0
-34 -218 0
-35 -219 0
-36 -220 0
-37 -221 0
-38 -222 0
-39 -223 0
-40 -224 0
-33 -361 0
-34 -362 0
-35 -363 0
-36 -364 0
-37 -365 0
-38 -366 0
-39 -367 0
-40 -368 0
-33 -145 0
-34 -146 0
-35 -147 0
-36 -148 0
-37 -149 0
-38 -150 0
-39 -151 0
-40 -152 0
-33 -385 0
-34 -386 0
-35 -387 0
-36 -388 0
-37 -389 0
-38 -390 0
-39 -391 0
-40 -392 0
-33 -57 0
-34 -58 0
-35 -59 0
-36 -60 0
-37 -61 0
-38 -62 0
-39 -63 0
-40 -64 0
-33 -273 0
-34 -274 0
-35 -275 0
-36 -276 0
-37 -277 0
-38 -278 0
-39 -279 0
-40 -280 0
-33 -369 0
-34 -370 0
-35 -371 0
-36 -372 0
-37 -373 0
-38 -374 0
-39 -375 0
-40 -376 0
-33 -297 0
-34 -298 0
-35 -299 0
-36 -300 0
-37 -301 0
-38 -302 0
-39 -303 0
-40 -304 0
-33 -233 0
-34 -234 0
-35 -235 0
-36 -236 0
-37 -237 0
-38 -238 0
-39 -239 0
-40 -240 0
-33 -89 0
-34 -90 0
-35 -91 0
-36 -92 0
-37 -93 0
-38 -94 0
-39 -95 0
-40 -96 0
-33 -153 0
-34 -154 0
-35 -155 0
-36 -156 0
-37 -157 0
-38 -158 0
-39 -159 0
-40 -160 0
-33 -257 0
-34 -258 0
-35 -259 0
-36 -260 0
-37 -261 0
-38 -262 0
-39 -263 0
-40 -264 0
-41 -329 0
-42 -330 0
-43 -331 0
-44 -332 0
-45 -333 0
-46 -334 0
-47 -335 0
-48 -336 0
-41 -129 0
-42 -130 0
-43 -131 0
-44 -132 0
-45 -133 0
-46 -134 0
-47 -135 0
-48 -136 0
-41 -217 0
-42 -218 0
-43 -219 0
-44 -220 0
-45 -221 0
-46 -222 0
-47 -223 0
-48 -224 0
-41 -321 0
-42 -322 0
-43 -323 0
-44 -324 0
-45 -325 0
-46 -326 0
-47 -327 0
-48 -328 0
-41 -353 0
-42 -354 0
-43 -355 0
-44 -356 0
-45 -357 0
-46 -358 0
-47 -359 0
-48 -360 0
-41 -137 0
-42 -138 0
-43 -139 0
-44 -140 0
-45 -141 0
-46 -142 0
-47 -143 0
-48 -144 0
-41 -193 0
-42 -194 0
-43 -195 0
-44 -196 0
-45 -197 0
-46 -198 0
-47 -199 0
-48 -200 0
-41 -113 0
-42 -114 0
-43 -115 0
-44 -116 0
-45 -117 0
-46 -118 0
-47 -119 0
-48 -120 0
-41 -265 0
-42 -266 0
-43 -267 0
-44 -268 0
-45 -269 0
-46 -270 0
-47 -271 0
-48 -272 0
-41 -289 0
-42 -290 0
-43 -291 0
-44 -292 0
-45 -293 0
-46 -294 0
-47 -295 0
-48 -296 0
-41 -121 0
-42 -122 0
-43 -123 0
-44 -124 0
-45 -125 0
-46 -126 0
-47 -127 0
-48 -128 0
-41 -153 0
-42 -154 0
-43 -155 0
-44 -156 0
-45 -157 0
-46 -158 0
-47 -159 0
-48 -160 0
-41 -89 0
-42 -90 0
-43 -91 0
-44 -92 0
-45 -93 0
-46 -94 0
-47 -95 0
-48 -96 0
-49 -281 0
-50 -282 0
-51 -283 0
-52 -284 0
-53 -285 0
-54 -286 0
-55 -287 0
-56 -288 0
-49 -169 0
-50 -170 0
-51 -171 0
-52 -172 0
-53 -173 0
-54 -174 0
-55 -175 0
-56 -176 0
-49 -209 0
-50 -210 0
-51 -211 0
-52 -212 0
-53 -213 0
-54 -214 0
-55 -215 0
-56 -216 0
-49 -185 0
-50 -186 0
-51 -187 0
-52 -188 0
-53 -189 0
-54 -190 0
-55 -191 0
-56 -192 0
-49 -177 0
-50 -178 0
-51 -179 0
-52 -180 0
-53 -181 0
-54 -182 0
-55 -183 0
-56 -184 0
-49 -313 0
-50 -314 0
-51 -315 0
-52 -316 0
-53 -317 0
-54 -318 0
-55 -319 0
-56 -320 0
-49 -393 0
-50 -394 0
-51 -395 0
-52 -396 0
-53 -397 0
-54 -398 0
-55 -399 0
-56 -400 0
-49 -353 0
-50 -354 0
-51 -355 0
-52 -356 0
-53 -357 0
-54 -358 0
-55 -359 0
-56 -360 0
-49 -137 0
-50 -138 0
-51 -139 0
-52 -140 0
-53 -141 0
-54 -142 0
-55 -143 0
-56 -144 0
-49 -113 0
-50 -114 0
-51 -115 0
-52 -116 0
-53 -117 0
-54 -118 0
-55 -119 0
-56 -120 0
-49 -377 0
-50 -378 0
-51 -379 0
-52 -380 0
-53 -381 0
-54 -382 0
-55 -383 0
-56 -384 0
-49 -193 0
-50 -194 0
-51 -195 0
-52 -196 0
-53 -197 0
-54 -198 0
-55 -199 0
-56 -200 0
-49 -265 0
-50 -266 0
-51 -267 0
-52 -268 0
-53 -269 0
-54 -270 0
-55 -271 0
-56 -272 0
-49 -289 0
-50 -290 0
-51 -291 0
-52 -292 0
-53 -293 0
-54 -294 0
-55 -295 0
-56 -296 0
-49 -121 0
-50 -122 0
-51 -123 0
-52 -124 0
-53 -125 0
-54 -126 0
-55 -127 0
-56 -128 0
-57 -241 0
-58 -242 0
-59 -243 0
-60 -244 0
-61 -245 0
-62 -246 0
-63 -247 0
-64 -248 0
-57 -105 0
-58 -106 0
-59 -107 0
-60 -108 0
-61 -109 0
-62 -110 0
-63 -111 0
-64 -112 0
-57 -337 0
-58 -338 0
-59 -339 0
-60 -340 0
-61 -341 0
-62 -342 0
-63 -343 0
-64 -344 0
-57 -161 0
-58 -162 0
-59 -163 0
-60 -164 0
-61 -165 0
-62 -166 0
-63 -167 0
-64 -168 0
-57 -145 0
-58 -146 0
-59 -147 0
-60 -148 0
-61 -149 0
-62 -150 0
-63 -151 0
-64 -152 0
-57 -385 0
-58 -386 0
-59 -387 0
-60 -388 0
-61 -389 0
-62 -390 0
-63 -391 0
-64 -392 0
-57 -201 0
-58 -202 0
-59 -203 0
-60 -204 0
-61 -205 0
-62 -206 0
-63 -207 0
-64 -208 0
-57 -273 0
-58 -274 0
-59 -275 0
-60 -276 0
-61 -277 0
-62 -278 0
-63 -279 0
-64 -280 0
-57 -233 0
-58 -234 0
-59 -235 0
-60 -236 0
-61 -237 0
-62 -238 0
-63 -239 0
-64 -240 0
-57 -297 0
-58 -298 0
-59 -299 0
-60 -300 0
-61 -301 0
-62 -302 0
-63 -303 0
-64 -304 0
-57 -257 0
-58 -258 0
-59 -259 0
-60 -260 0
-61 -261 0
-62 -262 0
-63 -263 0
-64 -264 0
-57 -369 0
-58 -370 0
-59 -371 0
-60 -372 0
-61 -373 0
-62 -374 0
-63 -375 0
-64 -376 0
-57 -65 0
-58 -66 0
-59 -67 0
-60 -68 0
-61 -69 0
-62 -70 0
-63 -71 0
-64 -72 0
-57 -81 0
-58 -82 0
-59 -83 0
-60 -84 0
-61 -85 0
-62 -86 0
-63 -87 0
-64 -88 0
-57 -345 0
-58 -346 0
-59 -347 0
-60 -348 0
-61 -349 0
-62 -350 0
-63 -351 0
-64 -352 0
-65 -281 0
-66 -282 0
-67 -283 0
-68 -284 0
-69 -285 0
-70 -286 0
-71 -287 0
-72 -288 0
-65 -169 0
-66 -170 0
-67 -171 0
-68 -172 0
-69 -173 0
-70 -174 0
-71 -175 0
-72 -176 0
-65 -209 0
-66 -210 0
-67 -211 0
-68 -212 0
-69 -213 0
-70 -214 0
-71 -215 0
-72 -216 0
-65 -241 0
-66 -242 0
-67 -243 0
-68 -244 0
-69 -245 0
-70 -246 0
-71 -247 0
-72 -248 0
-65 -105 0
-66 -106 0
-67 -107 0
-68 -108 0
-69 -109 0
-70 -110 0
-71 -111 0
-72 -112 0
-65 -337 0
-66 -338 0
-67 -339 0
-68 -340 0
-69 -341 0
-70 -342 0
-71 -343 0
-72 -344 0
-65 -185 0
-66 -186 0
-67 -187 0
-68 -188 0
-69 -189 0
-70 -190 0
-71 -191 0
-72 -192 0
-65 -177 0
-66 -178 0
-67 -179 0
-68 -180 0
-69 -181 0
-70 -182 0
-71 -183 0
-72 -184 0
-65 -201 0
-66 -202 0
-67 -203 0
-68 -204 0
-69 -205 0
-70 -206 0
-71 -207 0
-72 -208 0
-65 -273 0
-66 -274 0
-67 -275 0
-68 -276 0
-69 -277 0
-70 -278 0
-71 -279 0
-72 -280 0
-65 -377 0
-66 -378 0
-67 -379 0
-68 -380 0
-69 -381 0
-70 -382 0
-71 -383 0
-72 -384 0
-65 -81 0
-66 -82 0
-67 -83 0
-68 -84 0
-69 -85 0
-70 -86 0
-71 -87 0
-72 -88 0
-65 -345 0
-66 -346 0
-67 -347 0
-68 -348 0
-69 -349 0
-70 -350 0
-71 -351 0
-72 -352 0
-73 -209 0
-74 -210 0
-75 -211 0
-76 -212 0
-77 -213 0
-78 -214 0
-79 -215 0
-80 -216 0
-73 -185 0
-74 -186 0
-75 -187 0
-76 -188 0
-77 -189 0
-78 -190 0
-79 -191 0
-80 -192 0
-73 -329 0
-74 -330 0
-75 -331 0
-76 -332 0
-77 -333 0
-78 -334 0
-79 -335 0
-80 -336 0
-73 -129 0
-74 -130 0
-75 -131 0
-76 -132 0
-77 -133 0
-78 -134 0
-79 -135 0
-80 -136 0
-73 -161 0
-74 -162 0
-75 -163 0
-76 -164 0
-77 -165 0
-78 -166 0
-79 -167 0
-80 -168 0
-73 -273 0
-74 -274 0
-75 -275 0
-76 -276 0
-77 -277 0
-78 -278 0
-79 -279 0
-80 -280 0
-73 -369 0
-74 -370 0
-75 -371 0
-76 -372 0
-77 -373 0
-78 -374 0
-79 -375 0
-80 -376 0
-73 -113 0
-74 -114 0
-75 -115 0
-76 -116 0
-77 -117 0
-78 -118 0
-79 -119 0
-80 -120 0
-73 -265 0
-74 -266 0
-75 -267 0
-76 -268 0
-77 -269 0
-78 -270 0
-79 -271 0
-80 -272 0
-73 -289 0
-74 -290 0
-75 -291 0
-76 -292 0
-77 -293 0
-78 -294 0
-79 -295 0
-80 -296 0
-73 -233 0
-74 -234 0
-75 -235 0
-76 -236 0
-77 -237 0
-78 -238 0
-79 -239 0
-80 -240 0
-73 -345 0
-74 -346 0
-75 -347 0
-76 -348 0
-77 -349 0
-78 -350 0
-79 -351 0
-80 -352 0
-73 -81 0
-74 -82 0
-75 -83 0
-76 -84 0
-77 -85 0
-78 -86 0
-79 -87 0
-80 -88 0
-81 -281 0
-82 -282 0
-83 -283 0
-84 -284 0
-85 -285 0
-86 -286 0
-87 -287 0
-88 -288 0
-81 -169 0
-82 -170 0
-83 -171 0
-84 -172 0
-85 -173 0
-86 -174 0
-87 -175 0
-88 -176 0
-81 -209 0
-82 -210 0
-83 -211 0
-84 -212 0
-85 -213 0
-86 -214 0
-87 -215 0
-88 -216 0
-81 -105 0
-82 -106 0
-83 -107 0
-84 -108 0
-85 -109 0
-86 -110 0
-87 -111 0
-88 -112 0
-81 -337 0
-82 -338 0
-83 -339 0
-84 -340 0
-85 -341 0
-86 -342 0
-87 -343 0
-88 -344 0
-81 -185 0
-82 -186 0
-83 -187 0
-84 -188 0
-85 -189 0
-86 -190 0
-87 -191 0
-88 -192 0
-81 -201 0
-82 -202 0
-83 -203 0
-84 -204 0
-85 -205 0
-86 -206 0
-87 -207 0
-88 -208 0
-81 -273 0
-82 -274 0
-83 -275 0
-84 -276 0
-85 -277 0
-86 -278 0
-87 -279 0
-88 -280 0
-81 -369 0
-82 -370 0
-83 -371 0
-84 -372 0
-85 -373 0
-86 -374 0
-87 -375 0
-88 -376 0
-81 -377 0
-82 -378 0
-83 -379 0
-84 -380 0
-85 -381 0
-86 -382 0
-87 -383 0
-88 -384 0
-81 -233 0
-82 -234 0
-83 -235 0
-84 -236 0
-85 -237 0
-86 -238 0
-87 -239 0
-88 -240 0
-81 -345 0
-82 -346 0
-83 -347 0
-84 -348 0
-85 -349 0
-86 -350 0
-87 -351 0
-88 -352 0
-89 -329 0
-90 -330 0
-91 -331 0
-92 -332 0
-93 -333 0
-94 -334 0
-95 -335 0
-96 -336 0
-89 -129 0
-90 -130 0
-91 -131 0
-92 -132 0
-93 -133 0
-94 -134 0
-95 -135 0
-96 -136 0
-89 -161 0
-90 -162 0
-91 -163 0
-92 -164 0
-93 -165 0
-94 -166 0
-95 -167 0
-96 -168 0
-89 -217 0
-90 -218 0
-91 -219 0
-92 -220 0
-93 -221 0
-94 -222 0
-95 -223 0
-96 -224 0
-89 -321 0
-90 -322 0
-91 -323 0
-92 -324 0
-93 -325 0
-94 -326 0
-95 -327 0
-96 -328 0
-89 -361 0
-90 -362 0
-91 -363 0
-92 -364 0
-93 -365 0
-94 -366 0
-95 -367 0
-96 -368 0
-89 -249 0
-90 -250 0
-91 -251 0
-92 -252 0
-93 -253 0
-94 -254 0
-95 -255 0
-96 -256 0
-89 -145 0
-90 -146 0
-91 -147 0
-92 -148 0
-93 -149 0
-94 -150 0
-95 -151 0
-96 -152 0
-89 -385 0
-90 -386 0
-91 -387 0
-92 -388 0
-93 -389 0
-94 -390 0
-95 -391 0
-96 -392 0
-89 -297 0
-90 -298 0
-91 -299 0
-92 -300 0
-93 -301 0
-94 -302 0
-95 -303 0
-96 -304 0
-89 -153 0
-90 -154 0
-91 -155 0
-92 -156 0
-93 -157 0
-94 -158 0
-95 -159 0
-96 -160 0
-89 -233 0
-90 -234 0
-91 -235 0
-92 -236 0
-93 -237 0
-94 -238 0
-95 -239 0
-96 -240 0
-89 -257 0
-90 -258 0
-91 -259 0
-92 -260 0
-93 -261 0
-94 -262 0
-95 -263 0
-96 -264 0
-97 -241 0
-98 -242 0
-99 -243 0
-100 -244 0
-101 -245 0
-102 -246 0
-103 -247 0
-104 -248 0
-97 -105 0
-98 -106 0
-99 -107 0
-100 -108 0
-101 -109 0
-102 -110 0
-103 -111 0
-104 -112 0
-97 -337 0
-98 -338 0
-99 -339 0
-100 -340 0
-101 -341 0
-102 -342 0
-103 -343 0
-104 -344 0
-97 -177 0
-98 -178 0
-99 -179 0
-100 -180 0
-101 -181 0
-102 -182 0
-103 -183 0
-104 -184 0
-97 -225 0
-98 -226 0
-99 -227 0
-100 -228 0
-101 -229 0
-102 -230 0
-103 -231 0
-104 -232 0
-97 -393 0
-98 -394 0
-99 -395 0
-100 -396 0
-101 -397 0
-102 -398 0
-103 -399 0
-104 -400 0
-97 -321 0
-98 -322 0
-99 -323 0
-100 -324 0
-101 -325 0
-102 -326 0
-103 -327 0
-104 -328 0
-97 -361 0
-98 -362 0
-99 -363 0
-100 -364 0
-101 -365 0
-102 -366 0
-103 -367 0
-104 -368 0
-97 -249 0
-98 -250 0
-99 -251 0
-100 -252 0
-101 -253 0
-102 -254 0
-103 -255 0
-104 -256 0
-97 -145 0
-98 -146 0
-99 -147 0
-100 -148 0
-101 -149 0
-102 -150 0
-103 -151 0
-104 -152 0
-97 -385 0
-98 -386 0
-99 -387 0
-100 -388 0
-101 -389 0
-102 -390 0
-103 -391 0
-104 -392 0
-97 -305 0
-98 -306 0
-99 -307 0
-100 -308 0
-101 -309 0
-102 -310 0
-103 -311 0
-104 -312 0
-97 -377 0
-98 -378 0
-99 -379 0
-100 -380 0
-101 -381 0
-102 -382 0
-103 -383 0
-104 -384 0
-97 -193 0
-98 -194 0
-99 -195 0
-100 -196 0
-101 -197 0
-102 -198 0
-103 -199 0
-104 -200 0
-97 -257 0
-98 -258 0
-99 -259 0
-100 -260 0
-101 -261 0
-102 -262 0
-103 -263 0
-104 -264 0
-105 -281 0
-106 -282 0
-107 -283 0
-108 -284 0
-109 -285 0
-110 -286 0
-111 -287 0
-112 -288 0
-105 -169 0
-106 -170 0
-107 -171 0
-108 -172 0
-109 -173 0
-110 -174 0
-111 -175 0
-112 -176 0
-105 -241 0
-106 -242 0
-107 -243 0
-108 -244 0
-109 -245 0
-110 -246 0
-111 -247 0
-112 -248 0
-105 -337 0
-106 -338 0
-107 -339 0
-108 -340 0
-109 -341 0
-110 -342 0
-111 -343 0
-112 -344 0
-105 -201 0
-106 -202 0
-107 -203 0
-108 -204 0
-109 -205 0
-110 -206 0
-111 -207 0
-112 -208 0
-105 -377 0
-106 -378 0
-107 -379 0
-108 -380 0
-109 -381 0
-110 -382 0
-111 -383 0
-112 -384 0
-105 -177 0
-106 -178 0
-107 -179 0
-108 -180 0
-109 -181 0
-110 -182 0
-111 -183 0
-112 -184 0
-105 -225 0
-106 -226 0
-107 -227 0
-108 -228 0
-109 -229 0
-110 -230 0
-111 -231 0
-112 -232 0
-105 -145 0
-106 -146 0
-107 -147 0
-108 -148 0
-109 -149 0
-110 -150 0
-111 -151 0
-112 -152 0
-105 -273 0
-106 -274 0
-107 -275 0
-108 -276 0
-109 -277 0
-110 -278 0
-111 -279 0
-112 -280 0
-105 -257 0
-106 -258 0
-107 -259 0
-108 -260 0
-109 -261 0
-110 -262 0
-111 -263 0
-112 -264 0
-113 -281 0
-114 -282 0
-115 -283 0
-116 -284 0
-117 -285 0
-118 -286 0
-119 -287 0
-120 -288 0
-113 -169 0
-114 -170 0
-115 -171 0
-116 -172 0
-117 -173 0
-118 -174 0
-119 -175 0
-120 -176 0
-113 -209 0
-114 -210 0
-115 -211 0
-116 -212 0
-117 -213 0
-118 -214 0
-119 -215 0
-120 -216 0
-113 -185 0
-114 -186 0
-115 -187 0
-116 -188 0
-117 -189 0
-118 -190 0
-119 -191 0
-120 -192 0
-113 -313 0
-114 -314 0
-115 -315 0
-116 -316 0
-117 -317 0
-118 -318 0
-119 -319 0
-120 -320 0
-113 -129 0
-114 -130 0
-115 -131 0
-116 -132 0
-117 -133 0
-118 -134 0
-119 -135 0
-120 -136 0
-113 -353 0
-114 -354 0
-115 -355 0
-116 -356 0
-117 -357 0
-118 -358 0
-119 -359 0
-120 -360 0
-113 -137 0
-114 -138 0
-115 -139 0
-116 -140 0
-117 -141 0
-118 -142 0
-119 -143 0
-120 -144 0
-113 -265 0
-114 -266 0
-115 -267 0
-116 -268 0
-117 -269 0
-118 -270 0
-119 -271 0
-120 -272 0
-113 -289 0
-114 -290 0
-115 -291 0
-116 -292 0
-117 -293 0
-118 -294 0
-119 -295 0
-120 -296 0
-113 -121 0
-114 -122 0
-115 -123 0
-116 -124 0
-117 -125 0
-118 -126 0
-119 -127 0
-120 -128 0
-113 -345 0
-114 -346 0
-115 -347 0
-116 -348 0
-117 -349 0
-118 -350 0
-119 -351 0
-120 -352 0
-121 -313 0
-122 -314 0
-123 -315 0
-124 -316 0
-125 -317 0
-126 -318 0
-127 -319 0
-128 -320 0
-121 -393 0
-122 -394 0
-123 -395 0
-124 -396 0
-125 -397 0
-126 -398 0
-127 -399 0
-128 -400 0
-121 -129 0
-122 -130 0
-123 -131 0
-124 -132 0
-125 -133 0
-126 -134 0
-127 -135 0
-128 -136 0
-121 -217 0
-122 -218 0
-123 -219 0
-124 -220 0
-125 -221 0
-126 -222 0
-127 -223 0
-128 -224 0
-121 -321 0
-122 -322 0
-123 -323 0
-124 -324 0
-125 -325 0
-126 -326 0
-127 -327 0
-128 -328 0
-121 -353 0
-122 -354 0
-123 -355 0
-124 -356 0
-125 -357 0
-126 -358 0
-127 -359 0
-128 -360 0
-121 -137 0
-122 -138 0
-123 -139 0
-124 -140 0
-125 -141 0
-126 -142 0
-127 -143 0
-128 -144 0
-121 -193 0
-122 -194 0
-123 -195 0
-124 -196 0
-125 -197 0
-126 -198 0
-127 -199 0
-128 -200 0
-121 -265 0
-122 -266 0
-123 -267 0
-124 -268 0
-125 -269 0
-126 -270 0
-127 -271 0
-128 -272 0
-121 -289 0
-122 -290 0
-123 -291 0
-124 -292 0
-125 -293 0
-126 -294 0
-127 -295 0
-128 -296 0
-121 -153 0
-122 -154 0
-123 -155 0
-124 -156 0
-125 -157 0
-126 -158 0
-127 -159 0
-128 -160 0
-121 -305 0
-122 -306 0
-123 -307 0
-124 -308 0
-125 -309 0
-126 -310 0
-127 -311 0
-128 -312 0
-129 -329 0
-130 -330 0
-131 -331 0
-132 -332 0
-133 -333 0
-134 -334 0
-135 -335 0
-136 -336 0
-129 -217 0
-130 -218 0
-131 -219 0
-132 -220 0
-133 -221 0
-134 -222 0
-135 -223 0
-136 -224 0
-129 -289 0
-130 -290 0
-131 -291 0
-132 -292 0
-133 -293 0
-134 -294 0
-135 -295 0
-136 -296 0
-129 -265 0
-130 -266 0
-131 -267 0
-132 -268 0
-133 -269 0
-134 -270 0
-135 -271 0
-136 -272 0
-129 -161 0
-130 -162 0
-131 -163 0
-132 -164 0
-133 -165 0
-134 -166 0
-135 -167 0
-136 -168 0
-129 -369 0
-130 -370 0
-131 -371 0
-132 -372 0
-133 -373 0
-134 -374 0
-135 -375 0
-136 -376 0
-129 -137 0
-130 -138 0
-131 -139 0
-132 -140 0
-133 -141 0
-134 -142 0
-135 -143 0
-136 -144 0
-129 -153 0
-130 -154 0
-131 -155 0
-132 -156 0
-133 -157 0
-134 -158 0
-135 -159 0
-136 -160 0
-137 -281 0
-138 -282 0
-139 -283 0
-140 -284 0
-141 -285 0
-142 -286 0
-143 -287 0
-144 -288 0
-137 -209 0
-138 -210 0
-139 -211 0
-140 -212 0
-141 -213 0
-142 -214 0
-143 -215 0
-144 -216 0
-137 -313 0
-138 -314 0
-139 -315 0
-140 -316 0
-141 -317 0
-142 -318 0
-143 -319 0
-144 -320 0
-137 -393 0
-138 -394 0
-139 -395 0
-140 -396 0
-141 -397 0
-142 -398 0
-143 -399 0
-144 -400 0
-137 -353 0
-138 -354 0
-139 -355 0
-140 -356 0
-141 -357 0
-142 -358 0
-143 -359 0
-144 -360 0
-137 -265 0
-138 -266 0
-139 -267 0
-140 -268 0
-141 -269 0
-142 -270 0
-143 -271 0
-144 -272 0
-137 -193 0
-138 -194 0
-139 -195 0
-140 -196 0
-141 -197 0
-142 -198 0
-143 -199 0
-144 -200 0
-137 -289 0
-138 -290 0
-139 -291 0
-140 -292 0
-141 -293 0
-142 -294 0
-143 -295 0
-144 -296 0
-145 -241 0
-146 -242 0
-147 -243 0
-148 -244 0
-149 -245 0
-150 -246 0
-151 -247 0
-152 -248 0
-145 -337 0
-146 -338 0
-147 -339 0
-148 -340 0
-149 -341 0
-150 -342 0
-151 -343 0
-152 -344 0
-145 -225 0
-146 -226 0
-147 -227 0
-148 -228 0
-149 -229 0
-150 -230 0
-151 -231 0
-152 -232 0
-145 -321 0
-146 -322 0
-147 -323 0
-148 -324 0
-149 -325 0
-150 -326 0
-151 -327 0
-152 -328 0
-145 -361 0
-146 -362 0
-147 -363 0
-148 -364 0
-149 -365 0
-150 -366 0
-151 -367 0
-152 -368 0
-145 -249 0
-146 -250 0
-147 -251 0
-148 -252 0
-149 -253 0
-150 -254 0
-151 -255 0
-152 -256 0
-145 -385 0
-146 -386 0
-147 -387 0
-148 -388 0
-149 -389 0
-150 -390 0
-151 -391 0
-152 -392 0
-145 -257 0
-146 -258 0
-147 -259 0
-148 -260 0
-149 -261 0
-150 -262 0
-151 -263 0
-152 -264 0
-145 -297 0
-146 -298 0
-147 -299 0
-148 -300 0
-149 -301 0
-150 -302 0
-151 -303 0
-152 -304 0
-145 -153 0
-146 -154 0
-147 -155 0
-148 -156 0
-149 -157 0
-150 -158 0
-151 -159 0
-152 -160 0
-145 -305 0
-146 -306 0
-147 -307 0
-148 -308 0
-149 -309 0
-150 -310 0
-151 -311 0
-152 -312 0
-153 -329 0
-154 -330 0
-155 -331 0
-156 -332 0
-157 -333 0
-158 -334 0
-159 -335 0
-160 -336 0
-153 -217 0
-154 -218 0
-155 -219 0
-156 -220 0
-157 -221 0
-158 -222 0
-159 -223 0
-160 -224 0
-153 -321 0
-154 -322 0
-155 -323 0
-156 -324 0
-157 -325 0
-158 -326 0
-159 -327 0
-160 -328 0
-153 -361 0
-154 -362 0
-155 -363 0
-156 -364 0
-157 -365 0
-158 -366 0
-159 -367 0
-160 -368 0
-153 -249 0
-154 -250 0
-155 -251 0
-156 -252 0
-157 -253 0
-158 -254 0
-159 -255 0
-160 -256 0
-153 -385 0
-154 -386 0
-155 -387 0
-156 -388 0
-157 -389 0
-158 -390 0
-159 -391 0
-160 -392 0
-153 -193 0
-154 -194 0
-155 -195 0
-156 -196 0
-157 -197 0
-158 -198 0
-159 -199 0
-160 -200 0
-153 -305 0
-154 -306 0
-155 -307 0
-156 -308 0
-157 -309 0
-158 -310 0
-159 -311 0
-160 -312 0
-161 -329 0
-162 -330 0
-163 -331 0
-164 -332 0
-165 -333 0
-166 -334 0
-167 -335 0
-168 -336 0
-161 -369 0
-162 -370 0
-163 -371 0
-164 -372 0
-165 -373 0
-166 -374 0
-167 -375 0
-168 -376 0
-161 -233 0
-162 -234 0
-163 -235 0
-164 -236 0
-165 -237 0
-166 -238 0
-167 -239 0
-168 -240 0
-161 -217 0
-162 -218 0
-163 -219 0
-164 -220 0
-165 -221 0
-166 -222 0
-167 -223 0
-168 -224 0
-161 -385 0
-162 -386 0
-163 -387 0
-164 -388 0
-165 -389 0
-166 -390 0
-167 -391 0
-168 -392 0
-161 -273 0
-162 -274 0
-163 -275 0
-164 -276 0
-165 -277 0
-166 -278 0
-167 -279 0
-168 -280 0
-161 -289 0
-162 -290 0
-163 -291 0
-164 -292 0
-165 -293 0
-166 -294 0
-167 -295 0
-168 -296 0
-161 -297 0
-162 -298 0
-163 -299 0
-164 -300 0
-165 -301 0
-166 -302 0
-167 -303 0
-168 -304 0
-161 -345 0
-162 -346 0
-163 -347 0
-164 -348 0
-165 -349 0
-166 -350 0
-167 -351 0
-168 -352 0
-169 -281 0
-170 -282 0
-171 -283 0
-172 -284 0
-173 -285 0
-174 -286 0
-175 -287 0
-176 -288 0
-169 -209 0
-170 -210 0
-171 -211 0
-172 -212 0
-173 -213 0
-174 -214 0
-175 -215 0
-176 -216 0
-169 -185 0
-170 -186 0
-171 -187 0
-172 -188 0
-173 -189 0
-174 -190 0
-175 -191 0
-176 -192 0
-169 -377 0
-170 -378 0
-171 -379 0
-172 -380 0
-173 -381 0
-174 -382 0
-175 -383 0
-176 -384 0
-169 -177 0
-170 -178 0
-171 -179 0
-172 -180 0
-173 -181 0
-174 -182 0
-175 -183 0
-176 -184 0
-169 -313 0
-170 -314 0
-171 -315 0
-172 -316 0
-173 -317 0
-174 -318 0
-175 -319 0
-176 -320 0
-169 -201 0
-170 -202 0
-171 -203 0
-172 -204 0
-173 -205 0
-174 -206 0
-175 -207 0
-176 -208 0
-169 -273 0
-170 -274 0
-171 -275 0
-172 -276 0
-173 -277 0
-174 -278 0
-175 -279 0
-176 -280 0
-169 -345 0
-170 -346 0
-171 -347 0
-172 -348 0
-173 -349 0
-174 -350 0
-175 -351 0
-176 -352 0
-177 -281 0
-178 -282 0
-179 -283 0
-180 -284 0
-181 -285 0
-182 -286 0
-183 -287 0
-184 -288 0
-177 -209 0
-178 -210 0
-179 -211 0
-180 -212 0
-181 -213 0
-182 -214 0
-183 -215 0
-184 -216 0
-177 -241 0
-178 -242 0
-179 -243 0
-180 -244 0
-181 -245 0
-182 -246 0
-183 -247 0
-184 -248 0
-177 -225 0
-178 -226 0
-179 -227 0
-180 -228 0
-181 -229 0
-182 -230 0
-183 -231 0
-184 -232 0
-177 -313 0
-178 -314 0
-179 -315 0
-180 -316 0
-181 -317 0
-182 -318 0
-183 -319 0
-184 -320 0
-177 -393 0
-178 -394 0
-179 -395 0
-180 -396 0
-181 -397 0
-182 -398 0
-183 -399 0
-184 -400 0
-177 -377 0
-178 -378 0
-179 -379 0
-180 -380 0
-181 -381 0
-182 -382 0
-183 -383 0
-184 -384 0
-177 -353 0
-178 -354 0
-179 -355 0
-180 -356 0
-181 -357 0
-182 -358 0
-183 -359 0
-184 -360 0
-177 -193 0
-178 -194 0
-179 -195 0
-180 -196 0
-181 -197 0
-182 -198 0
-183 -199 0
-184 -200 0
-177 -305 0
-178 -306 0
-179 -307 0
-180 -308 0
-181 -309 0
-182 -310 0
-183 -311 0
-184 -312 0
-185 -281 0
-186 -282 0
-187 -283 0
-188 -284 0
-189 -285 0
-190 -286 0
-191 -287 0
-192 -288 0
-185 -209 0
-186 -210 0
-187 -211 0
-188 -212 0
-189 -213 0
-190 -214 0
-191 -215 0
-192 -216 0
-185 -345 0
-186 -346 0
-187 -347 0
-188 -348 0
-189 -349 0
-190 -350 0
-191 -351 0
-192 -352 0
-185 -201 0
-186 -202 0
-187 -203 0
-188 -204 0
-189 -205 0
-190 -206 0
-191 -207 0
-192 -208 0
-185 -273 0
-186 -274 0
-187 -275 0
-188 -276 0
-189 -277 0
-190 -278 0
-191 -279 0
-192 -280 0
-185 -369 0
-186 -370 0
-187 -371 0
-188 -372 0
-189 -373 0
-190 -374 0
-191 -375 0
-192 -376 0
-185 -377 0
-186 -378 0
-187 -379 0
-188 -380 0
-189 -381 0
-190 -382 0
-191 -383 0
-192 -384 0
-185 -289 0
-186 -290 0
-187 -291 0
-188 -292 0
-189 -293 0
-190 -294 0
-191 -295 0
-192 -296 0
-193 -225 0
-194 -226 0
-195 -227 0
-196 -228 0
-197 -229 0
-198 -230 0
-199 -231 0
-200 -232 0
-193 -313 0
-194 -314 0
-195 -315 0
-196 -316 0
-197 -317 0
-198 -318 0
-199 -319 0
-200 -320 0
-193 -393 0
-194 -394 0
-195 -395 0
-196 -396 0
-197 -397 0
-198 -398 0
-199 -399 0
-200 -400 0
-193 -217 0
-194 -218 0
-195 -219 0
-196 -220 0
-197 -221 0
-198 -222 0
-199 -223 0
-200 -224 0
-193 -321 0
-194 -322 0
-195 -323 0
-196 -324 0
-197 -325 0
-198 -326 0
-199 -327 0
-200 -328 0
-193 -361 0
-194 -362 0
-195 -363 0
-196 -364 0
-197 -365 0
-198 -366 0
-199 -367 0
-200 -368 0
-193 -249 0
-194 -250 0
-195 -251 0
-196 -252 0
-197 -253 0
-198 -254 0
-199 -255 0
-200 -256 0
-193 -353 0
-194 -354 0
-195 -355 0
-196 -356 0
-197 -357 0
-198 -358 0
-199 -359 0
-200 -360 0
-193 -305 0
-194 -306 0
-195 -307 0
-196 -308 0
-197 -309 0
-198 -310 0
-199 -311 0
-200 -312 0
-193 -265 0
-194 -266 0
-195 -267 0
-196 -268 0
-197 -269 0
-198 -270 0
-199 -271 0
-200 -272 0
-201 -241 0
-202 -242 0
-203 -243 0
-204 -244 0
-205 -245 0
-206 -246 0
-207 -247 0
-208 -248 0
-201 -337 0
-202 -338 0
-203 -339 0
-204 -340 0
-205 -341 0
-206 -342 0
-207 -343 0
-208 -344 0
-201 -273 0
-202 -274 0
-203 -275 0
-204 -276 0
-205 -277 0
-206 -278 0
-207 -279 0
-208 -280 0
-201 -369 0
-202 -370 0
-203 -371 0
-204 -372 0
-205 -373 0
-206 -374 0
-207 -375 0
-208 -376 0
-201 -377 0
-202 -378 0
-203 -379 0
-204 -380 0
-205 -381 0
-206 -382 0
-207 -383 0
-208 -384 0
-201 -297 0
-202 -298 0
-203 -299 0
-204 -300 0
-205 -301 0
-206 -302 0
-207 -303 0
-208 -304 0
-201 -233 0
-202 -234 0
-203 -235 0
-204 -236 0
-205 -237 0
-206 -238 0
-207 -239 0
-208 -240 0
-201 -257 0
-202 -258 0
-203 -259 0
-204 -260 0
-205 -261 0
-206 -262 0
-207 -263 0
-208 -264 0
-201 -345 0
-202 -346 0
-203 -347 0
-204 -348 0
-205 -349 0
-206 -350 0
-207 -351 0
-208 -352 0
-209 -281 0
-210 -282 0
-211 -283 0
-212 -284 0
-213 -285 0
-214 -286 0
-215 -287 0
-216 -288 0
-209 -313 0
-210 -314 0
-211 -315 0
-212 -316 0
-213 -317 0
-214 -318 0
-215 -319 0
-216 -320 0
-209 -377 0
-210 -378 0
-211 -379 0
-212 -380 0
-213 -381 0
-214 -382 0
-215 -383 0
-216 -384 0
-209 -353 0
-210 -354 0
-211 -355 0
-212 -356 0
-213 -357 0
-214 -358 0
-215 -359 0
-216 -360 0
-209 -265 0
-210 -266 0
-211 -267 0
-212 -268 0
-213 -269 0
-214 -270 0
-215 -271 0
-216 -272 0
-209 -289 0
-210 -290 0
-211 -291 0
-212 -292 0
-213 -293 0
-214 -294 0
-215 -295 0
-216 -296 0
-209 -345 0
-210 -346 0
-211 -347 0
-212 -348 0
-213 -349 0
-214 -350 0
-215 -351 0
-216 -352 0
-217 -329 0
-218 -330 0
-219 -331 0
-220 -332 0
-221 -333 0
-222 -334 0
-223 -335 0
-224 -336 0
-217 -321 0
-218 -322 0
-219 -323 0
-220 -324 0
-221 -325 0
-222 -326 0
-223 -327 0
-224 -328 0
-217 -361 0
-218 -362 0
-219 -363 0
-220 -364 0
-221 -365 0
-222 -366 0
-223 -367 0
-224 -368 0
-217 -385 0
-218 -386 0
-219 -387 0
-220 -388 0
-221 -389 0
-222 -390 0
-223 -391 0
-224 -392 0
-217 -265 0
-218 -266 0
-219 -267 0
-220 -268 0
-221 -269 0
-222 -270 0
-223 -271 0
-224 -272 0
-217 -289 0
-218 -290 0
-219 -291 0
-220 -292 0
-221 -293 0
-222 -294 0
-223 -295 0
-224 -296 0
-225 -281 0
-226 -282 0
-227 -283 0
-228 -284 0
-229 -285 0
-230 -286 0
-231 -287 0
-232 -288 0
-225 -241 0
-226 -242 0
-227 -243 0
-228 -244 0
-229 -245 0
-230 -246 0
-231 -247 0
-232 -248 0
-225 -393 0
-226 -394 0
-227 -395 0
-228 -396 0
-229 -397 0
-230 -398 0
-231 -399 0
-232 -400 0
-225 -305 0
-226 -306 0
-227 -307 0
-228 -308 0
-229 -309 0
-230 -310 0
-231 -311 0
-232 -312 0
-225 -313 0
-226 -314 0
-227 -315 0
-228 -316 0
-229 -317 0
-230 -318 0
-231 -319 0
-232 -320 0
-225 -321 0
-226 -322 0
-227 -323 0
-228 -324 0
-229 -325 0
-230 -326 0
-231 -327 0
-232 -328 0
-225 -249 0
-226 -250 0
-227 -251 0
-228 -252 0
-229 -253 0
-230 -254 0
-231 -255 0
-232 -256 0
-225 -377 0
-226 -378 0
-227 -379 0
-228 -380 0
-229 -381 0
-230 -382 0
-231 -383 0
-232 -384 0
-225 -353 0
-226 -354 0
-227 -355 0
-228 -356 0
-229 -357 0
-230 -358 0
-231 -359 0
-232 -360 0
-233 -337 0
-234 -338 0
-235 -339 0
-236 -340 0
-237 -341 0
-238 -342 0
-239 -343 0
-240 -344 0
-233 -329 0
-234 -330 0
-235 -331 0
-236 -332 0
-237 -333 0
-238 -334 0
-239 -335 0
-240 -336 0
-233 -385 0
-234 -386 0
-235 -387 0
-236 -388 0
-237 -389 0
-238 -390 0
-239 -391 0
-240 -392 0
-233 -273 0
-234 -274 0
-235 -275 0
-236 -276 0
-237 -277 0
-238 -278 0
-239 -279 0
-240 -280 0
-233 -369 0
-234 -370 0
-235 -371 0
-236 -372 0
-237 -373 0
-238 -374 0
-239 -375 0
-240 -376 0
-233 -297 0
-234 -298 0
-235 -299 0
-236 -300 0
-237 -301 0
-238 -302 0
-239 -303 0
-240 -304 0
-233 -257 0
-234 -258 0
-235 -259 0
-236 -260 0
-237 -261 0
-238 -262 0
-239 -263 0
-240 -264 0
-233 -345 0
-234 -346 0
-235 -347 0
-236 -348 0
-237 -349 0
-238 -350 0
-239 -351 0
-240 -352 0
-241 -337 0
-242 -338 0
-243 -339 0
-244 -340 0
-245 -341 0
-246 -342 0
-247 -343 0
-248 -344 0
-241 -257 0
-242 -258 0
-243 -259 0
-244 -260 0
-245 -261 0
-246 -262 0
-247 -263 0
-248 -264 0
-241 -361 0
-242 -362 0
-243 -363 0
-244 -364 0
-245 -365 0
-246 -366 0
-247 -367 0
-248 -368 0
-241 -249 0
-242 -250 0
-243 -251 0
-244 -252 0
-245 -253 0
-246 -254 0
-247 -255 0
-248 -256 0
-241 -385 0
-242 -386 0
-243 -387 0
-244 -388 0
-245 -389 0
-246 -390 0
-247 -391 0
-248 -392 0
-241 -377 0
-242 -378 0
-243 -379 0
-244 -380 0
-245 -381 0
-246 -382 0
-247 -383 0
-248 -384 0
-241 -297 0
-242 -298 0
-243 -299 0
-244 -300 0
-245 -301 0
-246 -302 0
-247 -303 0
-248 -304 0
-241 -305 0
-242 -306 0
-243 -307 0
-244 -308 0
-245 -309 0
-246 -310 0
-247 -311 0
-248 -312 0
-249 -393 0
-250 -394 0
-251 -395 0
-252 -396 0
-253 -397 0
-254 -398 0
-255 -399 0
-256 -400 0
-249 -321 0
-250 -322 0
-251 -323 0
-252 -324 0
-253 -325 0
-254 -326 0
-255 -327 0
-256 -328 0
-249 -361 0
-250 -362 0
-251 -363 0
-252 -364 0
-253 -365 0
-254 -366 0
-255 -367 0
-256 -368 0
-249 -305 0
-250 -306 0
-251 -307 0
-252 -308 0
-253 -309 0
-254 -310 0
-255 -311 0
-256 -312 0
-249 -385 0
-250 -386 0
-251 -387 0
-252 -388 0
-253 -389 0
-254 -390 0
-255 -391 0
-256 -392 0
-249 -257 0
-250 -258 0
-251 -259 0
-252 -260 0
-253 -261 0
-254 -262 0
-255 -263 0
-256 -264 0
-257 -337 0
-258 -338 0
-259 -339 0
-260 -340 0
-261 -341 0
-262 -342 0
-263 -343 0
-264 -344 0
-257 -361 0
-258 -362 0
-259 -363 0
-260 -364 0
-261 -365 0
-262 -366 0
-263 -367 0
-264 -368 0
-257 -385 0
-258 -386 0
-259 -387 0
-260 -388 0
-261 -389 0
-262 -390 0
-263 -391 0
-264 -392 0
-257 -273 0
-258 -274 0
-259 -275 0
-260 -276 0
-261 -277 0
-262 -278 0
-263 -279 0
-264 -280 0
-257 -297 0
-258 -298 0
-259 -299 0
-260 -300 0
-261 -301 0
-262 -302 0
-263 -303 0
-264 -304 0
-265 -329 0
-266 -330 0
-267 -331 0
-268 -332 0
-269 -333 0
-270 -334 0
-271 -335 0
-272 -336 0
-265 -353 0
-266 -354 0
-267 -355 0
-268 -356 0
-269 -357 0
-270 -358 0
-271 -359 0
-272 -360 0
-265 -289 0
-266 -290 0
-267 -291 0
-268 -292 0
-269 -293 0
-270 -294 0
-271 -295 0
-272 -296 0
-273 -337 0
-274 -338 0
-275 -339 0
-276 -340 0
-277 -341 0
-278 -342 0
-279 -343 0
-280 -344 0
-273 -369 0
-274 -370 0
-275 -371 0
-276 -372 0
-277 -373 0
-278 -374 0
-279 -375 0
-280 -376 0
-273 -345 0
-274 -346 0
-275 -347 0
-276 -348 0
-277 -349 0
-278 -350 0
-279 -351 0
-280 -352 0
-273 -297 0
-274 -298 0
-275 -299 0
-276 -300 0
-277 -301 0
-278 -302 0
-279 -303 0
-280 -304 0
-281 -313 0
-282 -314 0
-283 -315 0
-284 -316 0
-285 -317 0
-286 -318 0
-287 -319 0
-288 -320 0
-281 -377 0
-282 -378 0
-283 -379 0
-284 -380 0
-285 -381 0
-286 -382 0
-287 -383 0
-288 -384 0
-281 -393 0
-282 -394 0
-283 -395 0
-284 -396 0
-285 -397 0
-286 -398 0
-287 -399 0
-288 -400 0
-281 -353 0
-282 -354 0
-283 -355 0
-284 -356 0
-285 -357 0
-286 -358 0
-287 -359 0
-288 -360 0
-289 -329 0
-290 -330 0
-291 -331 0
-292 -332 0
-293 -333 0
-294 -334 0
-295 -335 0
-296 -336 0
-289 -369 0
-290 -370 0
-291 -371 0
-292 -372 0
-293 -373 0
-294 -374 0
-295 -375 0
-296 -376 0
-289 -345 0
-290 -346 0
-291 -347 0
-292 -348 0
-293 -349 0
-294 -350 0
-295 -351 0
-296 -352 0
-297 -337 0
-298 -338 0
-299 -339 0
-300 -340 0
-301 -341 0
-302 -342 0
-303 -343 0
-304 -344 0
-297 -329 0
-298 -330 0
-299 -331 0
-300 -332 0
-301 -333 0
-302 -334 0
-303 -335 0
-304 -336 0
-297 -361 0
-298 -362 0
-299 -363 0
-300 -364 0
-301 -365 0
-302 -366 0
-303 -367 0
-304 -368 0
-297 -385 0
-298 -386 0
-299 -387 0
-300 -388 0
-301 -389 0
-302 -390 0
-303 -391 0
-304 -392 0
-297 -369 0
-298 -370 0
-299 -371 0
-300 -372 0
-301 -373 0
-302 -374 0
-303 -375 0
-304 -376 0
-305 -313 0
-306 -314 0
-307 -315 0
-308 -316 0
-309 -317 0
-310 -318 0
-311 -319 0
-312 -320 0
-305 -393 0
-306 -394 0
-307 -395 0
-308 -396 0
-309 -397 0
-310 -398 0
-311 -399 0
-312 -400 0
-305 -321 0
-306 -322 0
-307 -323 0
-308 -324 0
-309 -325 0
-310 -326 0
-311 -327 0
-312 -328 0
-305 -361 0
-306 -362 0
-307 -363 0
-308 -364 0
-309 -365 0
-310 -366 0
-311 -367 0
-312 -368 0
-305 -353 0
-306 -354 0
-307 -355 0
-308 -356 0
-309 -357 0
-310 -358 0
-311 -359 0
-312 -360 0
-313 -393 0
-314 -394 0
-315 -395 0
-316 -396 0
-317 -397 0
-318 -398 0
-319 -399 0
-320 -400 0
-313 -353 0
-314 -354 0
-315 -355 0
-316 -356 0
-317 -357 0
-318 -358 0
-319 -359 0
-320 -360 0
-313 -377 0
-314 -378 0
-315 -379 0
-316 -380 0
-317 -381 0
-318 -382 0
-319 -383 0
-320 -384 0
-321 -393 0
-322 -394 0
-323 -395 0
-324 -396 0
-325 -397 0
-326 -398 0
-327 -399 0
-328 -400 0
-321 -361 0
-322 -362 0
-323 -363 0
-324 -364 0
-325 -365 0
-326 -366 0
-327 -367 0
-328 -368 0
-321 -385 0
-322 -386 0
-323 -387 0
-324 -388 0
-325 -389 0
-326 -390 0
-327 -391 0
-328 -392 0
-321 -353 0
-322 -354 0
-323 -355 0
-324 -356 0
-325 -357 0
-326 -358 0
-327 -359 0
-328 -360 0
-329 -361 0
-330 -362 0
-331 -363 0
-332 -364 0
-333 -365 0
-334 -366 0
-335 -367 0
-336 -368 0
-329 -385 0
-330 -386 0
-331 -387 0
-332 -388 0
-333 -389 0
-334 -390 0
-335 -391 0
-336 -392 0
-329 -369 0
-330 -370 0
-331 -371 0
-332 -372 0
-333 -373 0
-334 -374 0
-335 -375 0
-336 -376 0
-337 -385 0
-338 -386 0
-339 -387 0
-340 -388 0
-341 -389 0
-342 -390 0
-343 -391 0
-344 -392 0
-337 -377 0
-338 -378 0
-339 -379 0
-340 -380 0
-341 -381 0
-342 -382 0
-343 -383 0
-344 -384 0
-345 -369 0
-346 -370 0
-347 -371 0
-348 -372 0
-349 -373 0
-350 -374 0
-351 -375 0
-352 -376 0
-353 -393 0
-354 -394 0
-355 -395 0
-356 -396 0
-357 -397 0
-358 -398 0
-359 -399 0
-360 -400 0
-361 -385 0
-362 -386 0
-363 -387 0
-364 -388 0
-365 -389 0
-366 -390 0
-367 -391 0
-368 -392 0
-377 -393 0
-378 -394 0
-379 -395 0
-380 -396 0
-381 -397 0
-382 -398 0
-383 -399 0
-384 -400 0
1 2 3 4 5 6 7 8 0
9 10 11 12 13 14 15 16 0
17 18 19 20 21 22 23 24 0
25 26 27 28 29 30 31 32 0
33 34 35 36 37 38 39 40 0
41 42 43 44 45 46 47 48 0
49 50 51 52 53 54 55 56 0
57 58 59 60 61 62 63 64 0
65 66 67 68 69 70 71 72 0
73 74 75 76 77 78 79 80 0
81 82 83 84 85 86 87 88 0
89 90 91 92 93 94 95 96 0
97 98 99 100 101 102 103 104 0
105 106 107 108 109 110 111 112 0
113 114 115 116 117 118 119 120 0
121 122 123 124 125 126 127 128 0
129 130 131 132 133 134 135 136 0
137 138 139 140 141 142 143 144 0
145 146 147 148 149 150 151 152 0
153 154 155 156 157 158 159 160 0
161 162 163 164 165 166 167 168 0
169 170 171 172 173 174 175 176 0
177 178 179 180 181 182 183 184 0
185 186 187 188 189 190 191 192 0
193 194 195 196 197 198 199 200 0
201 202 203 204 205 206 207 208 0
209 210 211 212 213 214 215 216 0
217 218 219 220 221 222 223 224 0
225 226 227 228 229 230 231 232 0
233 234 235 236 237 238 239 240 0
241 242 243 244 245 246 247 248 0
249 250 251 252 253 254 255 256 0
257 258 259 260 261 262 263 264 0
265 266 267 268 269 270 271 272 0
273 274 275 276 277 278 279 280 0
281 282 283 284 285 286 287 288 0
289 290 291 292 293 294 295 296 0
297 298 299 300 301 302 303 304 0
305 306 307 308 309 310 311 312 0
313 314 315 316 317 318 319 320 0
321 322 323 324 325 326 327 328 0
329 330 331 332 333 334 335 336 0
337 338 339 340 341 342 343 344 0
345 346 347 348 349 350 351 352 0
353 354 355 356 357 358 359 360 0
361 362 363 364 365 366 367 368 0
369 370 371 372 373 374 375 376 0
377 378 379 380 381 382 383 384 0
385 386 387 388 389 390 391 392 0
393 394 395 396 397 398 399 400 0
